100 8
464 492
286 357
467 953
630 729
818 367
595 614
614 471
602 792
818 375
401 196
99 498
651 544
353 307
249 248
578 786
559 661
554 504
131 863
572 468
501 370
889 771
589 827
425 175
777 802
15 402
822 403
595 640
706 322
466 478
474 539
554 515
415 359
648 838
251 838
118 762
173 641
513 504
579 495
21 571
113 531
156 823
443 397
437 517
653 513
470 535
286 767
900 374
60 423
771 368
740 719
627 744
670 553
798 575
663 708
526 539
674 498
392 204
311 356
437 643
602 762
736 294
692 640
648 509
610 682
165 819
140 811
866 863
623 647
661 278
423 472
607 655
625 539
921 832
256 325
621 461
418 541
857 792
659 371
606 753
630 300
106 394
390 315
292 715
190 645
534 555
720 442
584 688
526 558
669 608
865 847
636 229
525 489
105 461
536 715
274 323
421 365
493 943
743 398
701 344
566 433
